nN = 4;
nR = 17;
nH = 1;

a = [[5, 9, 19, 16, 13, 10, 12, 20, 23, 6, 11, 17, 23, 10, 15, 24, 19], [22, 23, 13, 16, 21, 20, 12, 13, 24, 5, 14, 13, 20, 7, 22, 11, 16], [9, 14, 6, 21, 15, 14, 12, 7, 7, 5, 18, 13, 14, 15, 13, 5, 7], [13, 8, 6, 13, 19, 9, 8, 13, 17, 16, 6, 22, 20, 7, 24, 7, 9]];
c = [[[0, 0, 0, 0, 0, 0, 0, 0, 0, 0, 0, 0, 0, 0, 0, 0, 0], [49, 39, 48, 31, 46, 50, 40, 40, 44, 36, 43, 36, 30, 45, 34, 31, 32], [40, 48, 34, 39, 31, 46, 47, 44, 39, 45, 30, 36, 30, 48, 30, 43, 35], [38, 30, 45, 50, 46, 48, 46, 44, 42, 32, 46, 48, 33, 45, 43, 49, 30]], [[0, 0, 0, 0, 0, 0, 0, 0, 0, 0, 0, 0, 0, 0, 0, 0, 0], [0, 0, 0, 0, 0, 0, 0, 0, 0, 0, 0, 0, 0, 0, 0, 0, 0], [50, 35, 43, 48, 36, 40, 45, 39, 31, 49, 32, 40, 43, 40, 45, 33, 39], [36, 41, 39, 47, 49, 39, 48, 50, 46, 47, 50, 38, 38, 42, 30, 46, 44]], [[0, 0, 0, 0, 0, 0, 0, 0, 0, 0, 0, 0, 0, 0, 0, 0, 0], [0, 0, 0, 0, 0, 0, 0, 0, 0, 0, 0, 0, 0, 0, 0, 0, 0], [0, 0, 0, 0, 0, 0, 0, 0, 0, 0, 0, 0, 0, 0, 0, 0, 0], [50, 49, 30, 42, 43, 50, 44, 41, 36, 40, 35, 49, 41, 47, 46, 33, 47]], [[0, 0, 0, 0, 0, 0, 0, 0, 0, 0, 0, 0, 0, 0, 0, 0, 0], [0, 0, 0, 0, 0, 0, 0, 0, 0, 0, 0, 0, 0, 0, 0, 0, 0], [0, 0, 0, 0, 0, 0, 0, 0, 0, 0, 0, 0, 0, 0, 0, 0, 0], [0, 0, 0, 0, 0, 0, 0, 0, 0, 0, 0, 0, 0, 0, 0, 0, 0]]];
Q = [[53], [53], [45], [55]];

q = [[[10], [18], [18], [21], [18], [21], [5], [9], [12], [25], [5], [11], [18], [23], [9], [19], [22]], [[11], [9], [21], [15], [25], [9], [17], [21], [9], [19], [5], [18], [24], [25], [9], [7], [21]], [[9], [23], [10], [21], [8], [23], [9], [12], [5], [25], [18], [5], [6], [11], [12], [6], [21]], [[24], [17], [22], [17], [21], [10], [24], [20], [19], [10], [13], [24], [9], [11], [12], [12], [8]]];
p = [0.24, 0.3, 0.85, 0.06, 0.29, 0.75, 0.55, 0.44, 0.13, 0.6, 0.13, 0.99, 0.57, 0.24, 0.9, 0.78, 0.95];
